N = 9;
H = 6;
T = 2;

avail = array3d(1..N, 1..H, 1..T, [8, 9, 4, 3, 9, 3, 10, 6, 3, 5, 8, 0, 9, 4, 9, 3, 8, 10, 8, 0, 0, 2, 8, 2, 8, 4, 8, 8, 2, 6, 5, 9, 0, 5, 0, 0, 0, 6, 2, 2, 6, 7, 4, 7, 2, 7, 0, 4, 4, 2, 3, 6, 4, 8, 6, 8, 7, 6, 0, 10, 6, 2, 9, 9, 9, 10, 0, 5, 7, 7, 9, 1, 6, 9, 1, 10, 4, 1, 4, 4, 6, 6, 4, 2, 4, 8, 0, 1, 1, 10, 4, 2, 6, 1, 3, 1, 0, 6, 8, 8, 2, 10, 9, 10, 9, 7, 0, 2]);

r = array2d(1..H, 1..T, [3, 1, 1, 3, 0, 0, 2, 2, 2, 4, 1, 2]);
